Route #1: 5 41 13 42 23 9 12 26 27 44 7 17 22 20 30 43 34
Route #2: 10 45 15 19 32 28 4 39 36 21
Route #3: 2 3 38 16 35 8 25
Route #4: 18 11 1 6 24 31 37
Route #5: 29 40 14 33
cost 1216.6473579806884
